HmaxDs = 0.000000
HmaxUB_percent = 1.158938
HmaxUB_real = 3223.783066
FTnetDs = 0.500000
FTnetUB_percent = 2.135995
FTnetUB_real = 5774.065756
TIFgap = 0.300000
LimCIPF = 70.717829
SCIP version 1.1.0 [precision: 8 byte] [memory: block] [mode: optimized] [LP solver: Clp 1.8.2]
Copyright (c) 2002-2008 Konrad-Zuse-Zentrum fuer Informationstechnik Berlin (ZIB)

reading user parameter file </home/fabio/docs/hierarquia/models/scip.set>

read problem <data.N30.I1.s1.cluster1.T5.GL2.W2.TIFgap0.3.mps.gz>
============

original problem has 335 variables (170 bin, 0 int, 0 impl, 165 cont) and 142 constraints

solve problem
=============

presolving:
(round 1) 3 del vars, 3 del conss, 4 chg bounds, 0 chg sides, 32 chg coeffs, 0 upgd conss, 0 impls, 40 clqs
(round 2) 5 del vars, 3 del conss, 4 chg bounds, 1 chg sides, 32 chg coeffs, 0 upgd conss, 0 impls, 40 clqs
(round 3) 5 del vars, 3 del conss, 4 chg bounds, 3 chg sides, 32 chg coeffs, 0 upgd conss, 0 impls, 40 clqs
(round 4) 5 del vars, 4 del conss, 4 chg bounds, 3 chg sides, 32 chg coeffs, 41 upgd conss, 0 impls, 40 clqs
presolving (5 rounds):
 5 deleted vars, 4 deleted constraints, 4 tightened bounds, 0 added holes, 3 changed sides, 32 changed coefficients
 2890 implications, 40 cliques
presolved problem has 330 variables (170 bin, 0 int, 0 impl, 160 cont) and 138 constraints
      1 constraints of type <knapsack>
     40 constraints of type <setppc>
     97 constraints of type <linear>
Presolving Time: 0.06

 time | node  | left  |LP iter| mem |mdpt |frac |vars |cons |ccons|cols |rows |cuts |confs|strbr|  dualbound   | primalbound  |  gap   
  0.1s|     1 |     0 |   142 | 952k|   0 |  57 | 330 | 138 | 138 | 330 | 138 |   0 |   0 |   0 | 4.286255e+01 |      --      |    Inf 
  0.3s|     1 |     0 |  1582 |1062k|   0 |  51 | 330 | 138 | 138 | 330 | 163 |  25 |   0 |   0 | 6.857935e+01 |      --      |    Inf 
  0.4s|     1 |     0 |  1675 |1098k|   0 |  55 | 330 | 138 | 138 | 330 | 183 |  45 |   0 |   0 | 3.791797e+02 |      --      |    Inf 
  0.6s|     1 |     0 |  1770 |1133k|   0 |  57 | 330 | 138 | 138 | 330 | 200 |  62 |   0 |   0 | 6.304368e+02 |      --      |    Inf 
  0.8s|     1 |     0 |  1801 |1139k|   0 |  56 | 330 | 138 | 138 | 330 | 204 |  66 |   0 |   0 | 6.992649e+02 |      --      |    Inf 
  1.0s|     1 |     0 |  1829 |1143k|   0 |  61 | 330 | 138 | 138 | 330 | 209 |  71 |   0 |   0 | 7.821640e+02 |      --      |    Inf 
  1.1s|     1 |     0 |  1880 |1157k|   0 |  59 | 330 | 138 | 138 | 330 | 218 |  80 |   0 |   0 | 1.007231e+03 |      --      |    Inf 
  1.3s|     1 |     0 |  1904 |1159k|   0 |  64 | 330 | 138 | 138 | 330 | 221 |  83 |   0 |   0 | 1.024443e+03 |      --      |    Inf 
  1.5s|     1 |     0 |  1936 |1160k|   0 |  61 | 330 | 138 | 138 | 330 | 222 |  84 |   0 |   0 | 1.045780e+03 |      --      |    Inf 
  1.7s|     1 |     0 |  1967 |1163k|   0 |  61 | 330 | 138 | 138 | 330 | 225 |  87 |   0 |   0 | 1.103540e+03 |      --      |    Inf 
  1.9s|     1 |     0 |  1990 |1166k|   0 |  56 | 330 | 138 | 138 | 330 | 229 |  91 |   0 |   0 | 1.131278e+03 |      --      |    Inf 
  2.6s|     1 |     2 |  1998 |1168k|   0 |  56 | 330 | 138 | 138 | 330 | 229 |  91 |   0 |  24 | 1.131278e+03 |      --      |    Inf 

SCIP Status        : problem is solved [infeasible]
Solving Time (sec) : 5.96
Solving Nodes      : 27
Primal Bound       : +1.00000000000000e+20 (0 solutions)
Dual Bound         : +1.00000000000000e+20
Gap                : 0.00 %

primal solution:
================

no solution available

Statistics
==========

SCIP Status        : problem is solved [infeasible]
Solving Time       :       5.96
Original Problem   :
  Problem name     : labtel
  Variables        : 335 (170 binary, 0 integer, 0 implicit integer, 165 continuous)
  Constraints      : 142 initial, 142 maximal
Presolved Problem  :
  Problem name     : t_labtel
  Variables        : 330 (170 binary, 0 integer, 0 implicit integer, 160 continuous)
  Constraints      : 138 initial, 151 maximal
Presolvers         :       Time  FixedVars   AggrVars   ChgTypes  ChgBounds   AddHoles    DelCons   ChgSides   ChgCoefs
  trivial          :       0.00          0          0          0          0          0          0          0          0
  dualfix          :       0.00          0          0          0          0          0          0          0          0
  boundshift       :       0.00          0          0          0          0          0          0          0          0
  inttobinary      :       0.00          0          0          0          0          0          0          0          0
  implics          :       0.00          0          0          0          0          0          0          0          0
  probing          :       0.05          0          0          0          0          0          0          0          0
  knapsack         :       0.00          0          0          0          0          0          0          0          0
  setppc           :       0.00          0          0          0          0          0          0          0          0
  linear           :       0.00          0          5          0          4          0          4          3         32
  logicor          :       0.00          0          0          0          0          0          0          0          0
  root node        :          -         69          -          -         69          -          -          -          -
Constraints        :     Number  #Separate #Propagate    #EnfoLP    #EnfoPS    Cutoffs    DomReds       Cuts      Conss   Children
  integral         :          0          0          0         19          0          0         23          0          0         26
  knapsack         :          1         11        513          0          0          0          0          0          0          0
  setppc           :         40         11        513          0          0          0        921          0          0          0
  linear           :         97         11        513          0          0          8        291          2          0          0
  logicor          :          0+         0         13          0          0          0          3          0          0          0
  countsols        :          0          0          0          0          0          0          0          0          0          0
Constraint Timings :  TotalTime   Separate  Propagate     EnfoLP     EnfoPS
  integral         :       3.01       0.00       0.00       3.01       0.00
  knapsack         :       0.00       0.00       0.00       0.00       0.00
  setppc           :       0.00       0.00       0.00       0.00       0.00
  linear           :       0.04       0.01       0.03       0.00       0.00
  logicor          :       0.00       0.00       0.00       0.00       0.00
  countsols        :       0.00       0.00       0.00       0.00       0.00
Propagators        :       Time      Calls    Cutoffs    DomReds
  rootredcost      :       0.00          0          0          0
  pseudoobj        :       0.00         97          0          0
Conflict Analysis  :       Time      Calls    Success  Conflicts   Literals    Reconvs ReconvLits   LP Iters
  propagation      :       0.00          8          6         13        7.7          0        0.0          -
  infeasible LP    :       0.00          6          1          3       16.0          0        0.0          0
  bound exceed. LP :       0.00          0          0          0        0.0          0        0.0          0
  strong branching :       0.00          0          0          0        0.0          0        0.0          0
  pseudo solution  :       0.00          0          0          0        0.0          0        0.0          -
  applied globally :          -          -          -         14        8.1          -          -          -
  applied locally  :          -          -          -          0        0.0          -          -          -
Separators         :       Time      Calls    Cutoffs    DomReds       Cuts      Conss
  cut pool         :       0.00         10          -          -          7          -    (maximal pool size: 149)
  redcost          :       0.00         29          0          0          0          0
  impliedbounds    :       0.00         11          0          0         20          0
  intobj           :       0.00          0          0          0          0          0
  gomory           :       0.07         11          0          0          9          0
  strongcg         :       0.06         11          0          0          1          0
  cmir             :       0.62         10          0          0        116          0
  flowcover        :       0.91         10          0          0         14          0
  clique           :       0.01         11          0          0          6          0
  zerohalf         :       0.00          0          0          0          0          0
  mcf              :       0.00          0          0          0          0          0
Pricers            :       Time      Calls       Vars
  problem variables:       0.00          0          0
Branching Rules    :       Time      Calls    Cutoffs    DomReds       Cuts      Conss   Children
  relpscost        :       3.01         19          0         23          0          0         26
  pscost           :       0.00          0          0          0          0          0          0
  inference        :       0.00          0          0          0          0          0          0
  mostinf          :       0.00          0          0          0          0          0          0
  leastinf         :       0.00          0          0          0          0          0          0
  fullstrong       :       0.00          0          0          0          0          0          0
  allfullstrong    :       0.00          0          0          0          0          0          0
  random           :       0.00          0          0          0          0          0          0
Primal Heuristics  :       Time      Calls      Found
  LP solutions     :       0.00          -          0
  pseudo solutions :       0.00          -          0
  oneopt           :       0.00          0          0
  coefdiving       :       0.00          0          0
  pscostdiving     :       0.00          0          0
  fracdiving       :       0.00          0          0
  veclendiving     :       0.00          0          0
  objpscostdiving  :       0.00          0          0
  rootsoldiving    :       0.00          0          0
  linesearchdiving :       0.00          0          0
  simplerounding   :       0.00          0          0
  rounding         :       0.00         29          0
  shifting         :       0.00         11          0
  intshifting      :       0.00          1          0
  fixandinfer      :       0.00          0          0
  feaspump         :       0.11          1          0
  intdiving        :       0.00          0          0
  actconsdiving    :       0.00          0          0
  guideddiving     :       0.00          0          0
  octane           :       0.00          0          0
  rens             :       0.32          1          0
  rins             :       0.00          0          0
  localbranching   :       0.00          0          0
  mutation         :       0.00          0          0
  crossover        :       0.00          0          0
  dins             :       0.00          0          0
LP                 :       Time      Calls Iterations  Iter/call   Iter/sec
  primal LP        :       0.00          0          0       0.00          -
  dual LP          :       0.76         36       5981     166.14    7869.74
  barrier LP       :       0.00          0          0       0.00          -
  diving/probing LP:       0.11         35       1338      38.23   12163.64
  strong branching :       3.00        305      32162     105.45   10720.67
    (at root node) :          -         24       2784     116.00          -
  conflict analysis:       0.00          0          0       0.00          -
B&B Tree           :
  number of runs   :          1
  nodes            :         27
  nodes (total)    :         27
  nodes left       :          0
  max depth        :          6
  max depth (total):          6
  backtracks       :          6 (22.2%)
  delayed cutoffs  :          0
  repropagations   :          9 (59 domain reductions, 0 cutoffs)
  avg switch length:       2.52
  switching time   :       0.00
Solution           :
  Solutions found  :          0 (0 improvements)
  Primal Bound     : infeasible
  Dual Bound       :          -
  Gap              :       0.00 %
  Root Dual Bound  : +1.13127751882063e+03
